\ This file has been generated by DOcplex
\ ENCODING=ISO-8859-1
\Problem name: Qrandom17842_6.lp

Minimize
 obj: - 4772 x0 - 2386 x1 - 1193 x2 - 4752 x3 - 2376 x4 - 1188 x5 + [ 2720 x0^2
      + 2720 x0*x1 + 1360 x0*x2 + 5440 x0*x3 + 2720 x0*x4 + 1360 x0*x5
      + 680 x1^2 + 680 x1*x2 + 2720 x1*x3 + 1360 x1*x4 + 680 x1*x5 + 170 x2^2
      + 1360 x2*x3 + 680 x2*x4 + 340 x2*x5 + 2752 x3^2 + 2752 x3*x4 + 1376 x3*x5
      + 688 x4^2 + 688 x4*x5 + 172 x5^2 ]/2 + 4165
Subject To

Bounds
 0 <= x0 <= 1
 0 <= x1 <= 1
 0 <= x2 <= 1
 0 <= x3 <= 1
 0 <= x4 <= 1
 0 <= x5 <= 1

Binaries
 x0 x1 x2 x3 x4 x5
End
